

******************************************************************************
This program contains Ipopt, a library for large-scale nonlinear optimization.
 Ipopt is released as open source code under the Eclipse Public License (EPL).
         For more information visit https://github.com/coin-or/Ipopt
******************************************************************************

This is Ipopt version 3.14.11, running with linear solver MUMPS 5.5.1.

Number of nonzeros in equality constraint Jacobian...:        0
Number of nonzeros in inequality constraint Jacobian.:        0
Number of nonzeros in Lagrangian Hessian.............:      176

Total number of variables............................:       64
                     variables with only lower bounds:        0
                variables with lower and upper bounds:       64
                     variables with only upper bounds:        0
Total number of equality constraints.................:        0
Total number of inequality constraints...............:        0
        inequality constraints with only lower bounds:        0
   inequality constraints with lower and upper bounds:        0
        inequality constraints with only upper bounds:        0

iter    objective    inf_pr   inf_du lg(mu)  ||d||  lg(rg) alpha_du alpha_pr  ls
   0  9.4950689e+00 0.00e+00 1.58e+00  -1.0 0.00e+00    -  0.00e+00 0.00e+00   0
   1  9.3296375e+00 0.00e+00 8.77e-01  -1.0 1.12e-01    -  4.45e-01 2.00e-01f  1
   2  5.9700062e+00 0.00e+00 6.29e-01  -1.7 4.90e-01    -  2.22e-01 1.00e+00f  1
   3  3.8037255e+00 0.00e+00 2.41e-01  -1.7 2.92e-01    -  4.80e-01 1.00e+00f  1
   4  3.3410605e+00 0.00e+00 4.44e-16  -1.7 1.40e-01    -  1.00e+00 1.00e+00f  1
   5  3.0896079e+00 0.00e+00 3.52e-03  -2.5 3.00e-02    -  9.47e-01 1.00e+00f  1
   6  2.9257520e+00 0.00e+00 2.29e-02  -3.8 2.51e-02    -  7.17e-01 1.00e+00f  1
   7  2.8858195e+00 0.00e+00 7.37e-03  -3.8 8.44e-03    -  8.78e-01 1.00e+00f  1
   8  2.8822184e+00 0.00e+00 2.84e-16  -3.8 4.26e-03    -  1.00e+00 1.00e+00f  1
   9  2.8753656e+00 0.00e+00 9.46e-04  -5.7 2.26e-03    -  8.86e-01 1.00e+00f  1
iter    objective    inf_pr   inf_du lg(mu)  ||d||  lg(rg) alpha_du alpha_pr  ls
  10  2.8751425e+00 0.00e+00 2.74e-16  -5.7 1.26e-03    -  1.00e+00 1.00e+00f  1
  11  2.8750389e+00 0.00e+00 2.22e-05  -8.6 3.48e-04    -  9.84e-01 1.00e+00f  1
  12  2.8750381e+00 0.00e+00 2.22e-16  -8.6 2.21e-05    -  1.00e+00 1.00e+00f  1

Number of Iterations....: 12

                                   (scaled)                 (unscaled)
Objective...............:   2.8750381314593918e+00    2.8750381314593918e+00
Dual infeasibility......:   2.2204460492503131e-16    2.2204460492503131e-16
Constraint violation....:   0.0000000000000000e+00    0.0000000000000000e+00
Variable bound violation:   8.1411445362888912e-09    8.1411445362888912e-09
Complementarity.........:   4.9392671777396486e-09    4.9392671777396486e-09
Overall NLP error.......:   4.9392671777396486e-09    4.9392671777396486e-09


Number of objective function evaluations             = 13
Number of objective gradient evaluations             = 13
Number of equality constraint evaluations            = 0
Number of inequality constraint evaluations          = 0
Number of equality constraint Jacobian evaluations   = 0
Number of inequality constraint Jacobian evaluations = 0
Number of Lagrangian Hessian evaluations             = 12
Total seconds in IPOPT                               = 0.011

EXIT: Optimal Solution Found.
 
Ipopt 3.14.11: Optimal Solution Found
